p wcnf 104 208 209 
1 -88 51 0 
1 -57 82 0 
1 85 -103 0 
1 -50 -52 0 
1 -63 15 0 
1 97 101 0 
1 65 49 0 
1 -72 -11 0 
1 -87 -20 0 
1 54 -14 0 
1 -65 58 0 
1 -26 -65 0 
1 -16 -36 0 
1 59 -83 0 
1 76 87 0 
1 15 -85 0 
1 -89 81 0 
1 17 47 0 
1 -97 82 0 
1 91 -63 0 
1 -7 -42 0 
1 101 -71 0 
1 100 -24 0 
1 -94 45 0 
1 -30 80 0 
1 -58 99 0 
1 85 -75 0 
1 -17 52 0 
1 22 102 0 
1 79 24 0 
1 63 -35 0 
1 -57 51 0 
1 4 77 0 
1 2 -1 0 
1 62 20 0 
1 34 -58 0 
1 27 102 0 
1 40 58 0 
1 43 -13 0 
1 -78 -73 0 
1 76 57 0 
1 -99 92 0 
1 -19 -36 0 
1 80 -34 0 
1 46 49 0 
1 35 -85 0 
1 4 9 0 
1 1 27 0 
1 -58 79 0 
1 41 90 0 
1 15 -59 0 
1 -37 52 0 
1 -32 -66 0 
1 55 10 0 
1 -69 70 0 
1 -2 -40 0 
1 44 -50 0 
1 3 82 0 
1 -45 101 0 
1 50 33 0 
1 93 12 0 
1 89 -88 0 
1 91 -23 0 
1 15 87 0 
1 -4 80 0 
1 -60 56 0 
1 21 94 0 
1 32 38 0 
1 -36 81 0 
1 68 -93 0 
1 -42 6 0 
1 20 -87 0 
1 80 58 0 
1 -101 76 0 
1 88 -59 0 
1 -61 -71 0 
1 50 -45 0 
1 81 26 0 
1 80 -29 0 
1 41 -38 0 
1 24 81 0 
1 -26 -66 0 
1 34 -87 0 
1 98 -15 0 
1 -89 -28 0 
1 39 -12 0 
1 66 92 0 
1 -93 -88 0 
1 46 -37 0 
1 -41 63 0 
1 93 -6 0 
1 15 -71 0 
1 -58 17 0 
1 -28 -78 0 
1 40 -25 0 
1 69 -83 0 
1 -10 -90 0 
1 61 -84 0 
1 11 13 0 
1 -27 -17 0 
1 -9 -55 0 
1 58 -98 0 
1 14 -35 0 
1 -45 69 0 
1 65 -34 0 
1 -7 -31 0 
1 28 36 0 
1 61 -7 0 
1 90 17 0 
1 45 97 0 
1 -1 -9 0 
1 42 -86 0 
1 70 19 0 
1 -66 -36 0 
1 -27 65 0 
1 -8 5 0 
1 69 -77 0 
1 -94 -85 0 
1 -42 74 0 
1 89 71 0 
1 -97 -48 0 
1 38 35 0 
1 81 82 0 
1 -29 4 0 
1 16 2 0 
1 10 -59 0 
1 -54 68 0 
1 29 59 0 
1 -47 59 0 
1 -47 99 0 
1 23 61 0 
1 -83 -69 0 
1 83 -57 0 
1 -56 57 0 
1 54 2 0 
1 12 83 0 
1 101 -68 0 
1 -42 55 0 
1 38 40 0 
1 17 90 0 
1 -85 65 0 
1 39 63 0 
1 -48 103 0 
1 102 73 0 
1 -4 -13 0 
1 -45 63 0 
1 -13 48 0 
1 6 -76 0 
1 -59 29 0 
1 -72 68 0 
1 13 19 0 
1 -90 -101 0 
1 -67 -10 0 
1 -10 34 0 
1 92 74 0 
1 -80 52 0 
1 -90 42 0 
1 -98 27 0 
1 10 -41 0 
1 -27 -65 0 
1 66 93 0 
1 25 24 0 
1 33 -27 0 
1 46 -67 0 
1 68 -77 0 
1 -8 -82 0 
1 -101 49 0 
1 78 -49 0 
1 19 23 0 
1 -57 71 0 
1 -46 104 0 
1 -2 83 0 
1 -24 -13 0 
1 35 -76 0 
1 41 12 0 
1 -51 56 0 
1 -22 -3 0 
1 -63 69 0 
1 39 16 0 
1 40 74 0 
1 54 82 0 
1 -59 73 0 
1 -55 5 0 
1 10 25 0 
1 56 -85 0 
1 -56 -23 0 
1 39 -88 0 
1 65 -56 0 
1 -30 91 0 
1 14 15 0 
1 30 -9 0 
1 56 81 0 
1 -16 24 0 
1 102 72 0 
1 17 24 0 
1 22 30 0 
1 6 99 0 
1 85 -50 0 
1 -56 38 0 
1 -10 -75 0 
1 21 -63 0 
1 76 -82 0 
1 -88 -58 0 
1 -82 -78 0 
1 -54 -85 0 
1 63 57 0 
1 -20 -95 0 
1 -82 -36 0 
